c Reduced graph for myciel6gb generated by Cyril Grelier
p edge 95 755
e 1 8
e 1 17
e 1 26
e 1 27
e 1 32
e 1 41
e 1 50
e 1 51
e 1 52
e 1 54
e 1 58
e 1 61
e 1 75
e 1 87
e 2 16
e 2 21
e 2 23
e 2 26
e 2 27
e 2 30
e 2 40
e 2 50
e 2 59
e 2 66
e 2 79
e 2 87
e 2 92
e 3 11
e 3 16
e 3 17
e 3 36
e 3 38
e 3 46
e 3 56
e 3 62
e 3 63
e 3 78
e 3 86
e 3 93
e 4 16
e 4 17
e 4 38
e 4 45
e 4 54
e 4 56
e 4 60
e 4 63
e 4 75
e 4 86
e 5 16
e 5 17
e 5 34
e 5 45
e 5 63
e 5 75
e 5 86
e 6 16
e 6 17
e 6 26
e 6 34
e 6 50
e 6 92
e 7 8
e 7 9
e 7 10
e 7 11
e 7 17
e 7 18
e 7 27
e 7 32
e 7 38
e 7 41
e 7 43
e 7 47
e 7 51
e 7 53
e 7 54
e 7 56
e 7 59
e 7 60
e 7 62
e 7 70
e 7 87
e 7 89
e 7 90
e 7 93
e 8 16
e 8 30
e 8 34
e 8 35
e 8 46
e 8 55
e 8 78
e 8 82
e 8 92
e 9 16
e 9 30
e 9 34
e 9 35
e 9 50
e 9 55
e 9 79
e 9 92
e 10 16
e 10 19
e 10 29
e 10 34
e 10 45
e 10 50
e 10 75
e 10 79
e 11 13
e 11 19
e 11 28
e 11 34
e 11 35
e 11 37
e 11 45
e 11 50
e 11 55
e 11 58
e 11 67
e 11 79
e 11 80
e 11 83
e 12 17
e 12 28
e 12 34
e 12 35
e 12 37
e 12 45
e 12 50
e 12 51
e 12 58
e 12 80
e 13 16
e 13 17
e 13 26
e 13 36
e 13 46
e 13 59
e 13 62
e 13 87
e 13 92
e 14 16
e 14 17
e 14 26
e 14 34
e 14 36
e 14 63
e 14 75
e 15 16
e 15 17
e 15 34
e 15 35
e 15 46
e 15 78
e 15 92
e 16 22
e 16 24
e 16 25
e 16 28
e 16 31
e 16 32
e 16 33
e 16 37
e 16 41
e 16 43
e 16 44
e 16 47
e 16 48
e 16 49
e 16 51
e 16 52
e 16 53
e 16 57
e 16 58
e 16 61
e 16 67
e 16 68
e 16 70
e 16 71
e 16 72
e 16 73
e 16 74
e 16 77
e 16 80
e 16 83
e 16 84
e 16 85
e 16 89
e 16 90
e 16 91
e 16 94
e 17 19
e 17 20
e 17 21
e 17 23
e 17 24
e 17 25
e 17 29
e 17 30
e 17 33
e 17 39
e 17 40
e 17 42
e 17 44
e 17 48
e 17 49
e 17 55
e 17 57
e 17 64
e 17 65
e 17 66
e 17 67
e 17 68
e 17 69
e 17 71
e 17 74
e 17 76
e 17 77
e 17 79
e 17 81
e 17 82
e 17 83
e 17 84
e 17 85
e 17 88
e 17 91
e 17 95
e 18 21
e 18 22
e 18 26
e 18 28
e 18 29
e 18 34
e 18 36
e 18 39
e 18 52
e 18 57
e 18 61
e 18 63
e 18 71
e 18 73
e 18 74
e 18 75
e 18 77
e 18 81
e 18 83
e 19 22
e 19 26
e 19 31
e 19 32
e 19 36
e 19 43
e 19 46
e 19 51
e 19 52
e 19 59
e 19 62
e 19 72
e 19 87
e 19 90
e 19 92
e 20 28
e 20 34
e 20 35
e 20 37
e 20 50
e 20 51
e 20 58
e 20 72
e 20 92
e 21 35
e 21 37
e 21 38
e 21 45
e 21 47
e 21 51
e 21 53
e 21 60
e 21 70
e 21 78
e 21 80
e 21 86
e 21 89
e 21 93
e 21 94
e 22 27
e 22 35
e 22 40
e 22 42
e 22 45
e 22 50
e 22 55
e 22 60
e 22 65
e 22 79
e 23 28
e 23 34
e 23 35
e 23 37
e 23 45
e 23 51
e 23 78
e 23 80
e 23 86
e 23 94
e 24 34
e 24 36
e 24 46
e 24 63
e 24 78
e 24 86
e 25 26
e 25 34
e 25 50
e 25 75
e 26 33
e 26 35
e 26 37
e 26 38
e 26 42
e 26 45
e 26 47
e 26 48
e 26 49
e 26 53
e 26 55
e 26 60
e 26 64
e 26 65
e 26 67
e 26 69
e 26 70
e 26 78
e 26 80
e 26 86
e 26 88
e 26 89
e 26 93
e 26 94
e 27 28
e 27 31
e 27 33
e 27 34
e 27 36
e 27 39
e 27 44
e 27 46
e 27 48
e 27 63
e 27 64
e 27 71
e 27 73
e 27 77
e 27 78
e 27 81
e 27 82
e 27 83
e 27 86
e 27 94
e 28 38
e 28 40
e 28 42
e 28 54
e 28 56
e 28 59
e 28 60
e 28 62
e 28 65
e 28 66
e 28 69
e 28 76
e 28 87
e 28 88
e 28 93
e 28 95
e 29 31
e 29 35
e 29 37
e 29 43
e 29 46
e 29 47
e 29 51
e 29 59
e 29 62
e 29 72
e 29 78
e 29 89
e 29 92
e 29 93
e 29 94
e 30 38
e 30 45
e 30 51
e 30 53
e 30 54
e 30 56
e 30 60
e 30 61
e 30 63
e 30 70
e 30 73
e 30 75
e 30 80
e 30 86
e 31 40
e 31 42
e 31 45
e 31 50
e 31 54
e 31 60
e 31 75
e 31 79
e 31 95
e 32 34
e 32 35
e 32 45
e 32 55
e 32 64
e 32 78
e 32 86
e 33 50
e 33 59
e 33 87
e 33 92
e 34 38
e 34 40
e 34 41
e 34 42
e 34 43
e 34 47
e 34 49
e 34 53
e 34 54
e 34 56
e 34 59
e 34 60
e 34 62
e 34 65
e 34 66
e 34 68
e 34 69
e 34 70
e 34 76
e 34 84
e 34 85
e 34 87
e 34 88
e 34 89
e 34 90
e 34 91
e 34 93
e 34 95
e 35 36
e 35 39
e 35 52
e 35 54
e 35 56
e 35 57
e 35 61
e 35 63
e 35 68
e 35 71
e 35 73
e 35 74
e 35 75
e 35 77
e 35 81
e 35 84
e 35 87
e 35 90
e 35 91
e 35 95
e 36 37
e 36 40
e 36 41
e 36 42
e 36 45
e 36 47
e 36 49
e 36 50
e 36 53
e 36 55
e 36 58
e 36 60
e 36 65
e 36 67
e 36 79
e 36 80
e 37 39
e 37 54
e 37 56
e 37 63
e 37 75
e 37 81
e 37 87
e 37 95
e 38 50
e 38 52
e 38 58
e 38 72
e 38 74
e 38 79
e 38 83
e 38 92
e 39 41
e 39 45
e 39 47
e 39 50
e 39 51
e 39 53
e 39 58
e 39 60
e 39 80
e 40 46
e 40 51
e 40 63
e 40 73
e 40 78
e 40 86
e 40 94
e 41 46
e 41 63
e 41 64
e 41 78
e 41 81
e 41 82
e 41 86
e 42 46
e 42 51
e 42 52
e 42 72
e 42 92
e 43 45
e 43 63
e 43 64
e 43 75
e 43 81
e 43 86
e 44 45
e 44 50
e 44 54
e 44 60
e 44 75
e 45 46
e 45 52
e 45 59
e 45 62
e 45 66
e 45 68
e 45 71
e 45 72
e 45 74
e 45 76
e 45 82
e 45 84
e 45 85
e 45 87
e 45 90
e 45 92
e 46 49
e 46 50
e 46 53
e 46 54
e 46 57
e 46 58
e 46 60
e 46 61
e 46 75
e 46 79
e 46 80
e 46 95
e 47 63
e 47 75
e 47 81
e 48 50
e 48 54
e 48 75
e 48 87
e 49 92
e 50 56
e 50 62
e 50 63
e 50 64
e 50 68
e 50 69
e 50 70
e 50 71
e 50 73
e 50 76
e 50 77
e 50 78
e 50 81
e 50 82
e 50 85
e 50 86
e 50 88
e 50 89
e 50 90
e 50 91
e 50 93
e 50 94
e 51 55
e 51 64
e 51 65
e 51 66
e 51 69
e 51 76
e 51 79
e 51 81
e 51 82
e 51 88
e 51 95
e 52 55
e 52 60
e 52 64
e 52 65
e 52 69
e 52 78
e 52 86
e 52 88
e 52 93
e 53 82
e 53 92
e 54 55
e 54 67
e 54 72
e 54 78
e 54 82
e 54 83
e 54 92
e 54 94
e 55 56
e 55 61
e 55 63
e 55 73
e 55 75
e 55 87
e 55 90
e 56 58
e 56 67
e 56 72
e 56 79
e 56 83
e 56 92
e 57 59
e 57 62
e 57 78
e 57 92
e 57 93
e 58 62
e 58 63
e 58 64
e 58 69
e 58 76
e 58 78
e 58 81
e 58 82
e 58 86
e 58 88
e 58 93
e 59 61
e 59 63
e 59 64
e 59 73
e 59 75
e 59 77
e 59 80
e 59 81
e 59 83
e 59 86
e 60 71
e 60 72
e 60 74
e 60 82
e 60 83
e 60 92
e 61 62
e 61 65
e 61 66
e 61 76
e 61 78
e 61 82
e 61 88
e 61 92
e 61 93
e 62 75
e 62 79
e 62 80
e 62 83
e 63 65
e 63 66
e 63 67
e 63 72
e 63 79
e 63 92
e 64 72
e 64 87
e 64 92
e 65 73
e 65 75
e 66 73
e 66 75
e 66 80
e 66 86
e 67 75
e 67 87
e 69 72
e 69 92
e 70 79
e 70 92
e 72 75
e 72 81
e 72 86
e 72 95
e 73 79
e 73 92
e 74 78
e 74 86
e 74 93
e 75 76
e 75 78
e 75 82
e 75 85
e 75 88
e 75 89
e 75 92
e 75 93
e 75 94
e 76 80
e 77 92
e 78 79
e 78 84
e 78 87
e 78 95
e 79 86
e 79 89
e 79 90
e 79 93
e 79 94
e 80 82
e 80 87
e 80 92
e 81 92
e 83 87
e 83 93
e 84 86
e 86 87
e 86 92
e 87 94
e 91 92
e 92 95
e 94 95
